(set-logic QF_UF)
(declare-fun A0 () Bool)
(declare-fun A1 () Bool)
(declare-fun A2 () Bool)
(declare-fun A3 () Bool)
(declare-fun A4 () Bool)
(declare-fun A5 () Bool)
(declare-fun A6 () Bool)
(declare-fun A7 () Bool)
(declare-fun A8 () Bool)
(declare-fun A9 () Bool)
(declare-fun A10 () Bool)
(declare-fun A11 () Bool)
(declare-fun A12 () Bool)
(declare-fun A13 () Bool)
(declare-fun A14 () Bool)
(declare-fun A15 () Bool)
(declare-fun A16 () Bool)
(declare-fun A17 () Bool)
(declare-fun A18 () Bool)
(declare-fun A19 () Bool)
(declare-fun A20 () Bool)
(declare-fun A21 () Bool)
(declare-fun A22 () Bool)
(declare-fun A23 () Bool)
(declare-fun A24 () Bool)
(assert (let ((.def_0 (not A0))) (let ((.def_1 (= .def_0 A18))) (let ((.def_2 (not .def_1))) (let ((.def_3 (not A21))) (let ((.def_4 (and .def_3 A23))) (let ((.def_5 (not .def_4))) (let ((.def_6 (and .def_5 .def_2))) (let ((.def_7 (not A16))) (let ((.def_8 (not A20))) (let ((.def_9 (and .def_8 .def_7))) (let ((.def_10 (not .def_9))) (let ((.def_11 (not A18))) (let ((.def_12 (not A11))) (let ((.def_13 (and .def_12 .def_11))) (let ((.def_14 (and .def_13 .def_10))) (let ((.def_15 (or .def_14 .def_6))) (let ((.def_16 (not .def_15))) (let ((.def_17 (not A2))) (let ((.def_18 (not A24))) (let ((.def_19 (and .def_18 .def_17))) (let ((.def_20 (not .def_19))) (let ((.def_21 (and A3 A13))) (let ((.def_22 (or .def_21 .def_20))) (let ((.def_23 (= A0 A23))) (let ((.def_24 (not A17))) (let ((.def_25 (or A24 .def_24))) (let ((.def_26 (and .def_25 .def_23))) (let ((.def_27 (or .def_26 .def_22))) (let ((.def_28 (or .def_27 .def_16))) (let ((.def_29 (not .def_28))) (let ((.def_30 (not A5))) (let ((.def_31 (or .def_18 .def_30))) (let ((.def_32 (not A9))) (let ((.def_33 (not A8))) (let ((.def_34 (or .def_33 .def_32))) (let ((.def_35 (or .def_34 .def_31))) (let ((.def_36 (not .def_35))) (let ((.def_37 (and A5 A2))) (let ((.def_38 (not A3))) (let ((.def_39 (and .def_18 .def_38))) (let ((.def_40 (or .def_39 .def_37))) (let ((.def_41 (and .def_40 .def_36))) (let ((.def_42 (not .def_41))) (let ((.def_43 (or A13 .def_30))) (let ((.def_44 (not .def_43))) (let ((.def_45 (= .def_24 A13))) (let ((.def_46 (or .def_45 .def_44))) (let ((.def_47 (not .def_46))) (let ((.def_48 (and .def_7 A19))) (let ((.def_49 (not A10))) (let ((.def_50 (or A16 .def_49))) (let ((.def_51 (not .def_50))) (let ((.def_52 (and .def_51 .def_48))) (let ((.def_53 (not .def_52))) (let ((.def_54 (or .def_53 .def_47))) (let ((.def_55 (not .def_54))) (let ((.def_56 (and .def_55 .def_42))) (let ((.def_57 (and .def_56 .def_29))) (let ((.def_58 (not .def_57))) (let ((.def_59 (not A4))) (let ((.def_60 (or .def_59 A0))) (let ((.def_61 (not .def_60))) (let ((.def_62 (and A9 A0))) (let ((.def_63 (not .def_62))) (let ((.def_64 (and .def_63 .def_61))) (let ((.def_65 (not .def_64))) (let ((.def_66 (and A2 A8))) (let ((.def_67 (not .def_66))) (let ((.def_68 (or A12 .def_30))) (let ((.def_69 (and .def_68 .def_67))) (let ((.def_70 (and .def_69 .def_65))) (let ((.def_71 (not A23))) (let ((.def_72 (or .def_71 .def_12))) (let ((.def_73 (not .def_72))) (let ((.def_74 (not A14))) (let ((.def_75 (or .def_71 .def_74))) (let ((.def_76 (not .def_75))) (let ((.def_77 (or .def_76 .def_73))) (let ((.def_78 (or A3 .def_33))) (let ((.def_79 (or .def_18 A14))) (let ((.def_80 (or .def_79 .def_78))) (let ((.def_81 (not .def_80))) (let ((.def_82 (and .def_81 .def_77))) (let ((.def_83 (or .def_82 .def_70))) (let ((.def_84 (not .def_83))) (let ((.def_85 (not A22))) (let ((.def_86 (and A3 .def_85))) (let ((.def_87 (not .def_86))) (let ((.def_88 (and A14 A1))) (let ((.def_89 (and .def_88 .def_87))) (let ((.def_90 (not A1))) (let ((.def_91 (or .def_30 .def_90))) (let ((.def_92 (not .def_91))) (let ((.def_93 (and A10 A5))) (let ((.def_94 (not .def_93))) (let ((.def_95 (= .def_94 .def_92))) (let ((.def_96 (not .def_95))) (let ((.def_97 (or .def_96 .def_89))) (let ((.def_98 (or A19 A17))) (let ((.def_99 (or .def_0 A1))) (let ((.def_100 (not .def_99))) (let ((.def_101 (and .def_100 .def_98))) (let ((.def_102 (not .def_101))) (let ((.def_103 (or A22 .def_32))) (let ((.def_104 (and .def_8 .def_59))) (let ((.def_105 (or .def_104 .def_103))) (let ((.def_106 (not .def_105))) (let ((.def_107 (and .def_106 .def_102))) (let ((.def_108 (and .def_107 .def_97))) (let ((.def_109 (not .def_108))) (let ((.def_110 (or .def_109 .def_84))) (let ((.def_111 (or .def_110 .def_58))) (let ((.def_112 (not .def_111))) (let ((.def_113 (= .def_38 A7))) (let ((.def_114 (and A4 A10))) (let ((.def_115 (not .def_114))) (let ((.def_116 (and .def_115 .def_113))) (let ((.def_117 (not .def_116))) (let ((.def_118 (or A7 A7))) (let ((.def_119 (and .def_17 .def_49))) (let ((.def_120 (not .def_119))) (let ((.def_121 (and .def_120 .def_118))) (let ((.def_122 (or .def_121 .def_117))) (let ((.def_123 (not .def_122))) (let ((.def_124 (or .def_90 .def_32))) (let ((.def_125 (not .def_124))) (let ((.def_126 (or .def_24 A8))) (let ((.def_127 (and .def_126 .def_125))) (let ((.def_128 (not .def_127))) (let ((.def_129 (= .def_38 A6))) (let ((.def_130 (or A3 A0))) (let ((.def_131 (or .def_130 .def_129))) (let ((.def_132 (or .def_131 .def_128))) (let ((.def_133 (or .def_132 .def_123))) (let ((.def_134 (not .def_133))) (let ((.def_135 (or .def_85 .def_74))) (let ((.def_136 (or A16 .def_12))) (let ((.def_137 (and .def_136 .def_135))) (let ((.def_138 (and A12 A21))) (let ((.def_139 (not .def_138))) (let ((.def_140 (and .def_17 .def_18))) (let ((.def_141 (and .def_140 .def_139))) (let ((.def_142 (not .def_141))) (let ((.def_143 (or .def_142 .def_137))) (let ((.def_144 (not .def_143))) (let ((.def_145 (not A19))) (let ((.def_146 (and .def_145 .def_145))) (let ((.def_147 (and .def_74 A0))) (let ((.def_148 (not .def_147))) (let ((.def_149 (and .def_148 .def_146))) (let ((.def_150 (not .def_149))) (let ((.def_151 (or A6 .def_85))) (let ((.def_152 (not .def_151))) (let ((.def_153 (not A12))) (let ((.def_154 (and .def_59 .def_153))) (let ((.def_155 (or .def_154 .def_152))) (let ((.def_156 (not .def_155))) (let ((.def_157 (or .def_156 .def_150))) (let ((.def_158 (not .def_157))) (let ((.def_159 (and .def_158 .def_144))) (let ((.def_160 (and .def_159 .def_134))) (let ((.def_161 (or .def_153 A16))) (let ((.def_162 (not .def_161))) (let ((.def_163 (or .def_71 .def_7))) (let ((.def_164 (not .def_163))) (let ((.def_165 (and .def_164 .def_162))) (let ((.def_166 (not .def_165))) (let ((.def_167 (and .def_71 .def_74))) (let ((.def_168 (not .def_167))) (let ((.def_169 (and A23 A16))) (let ((.def_170 (not .def_169))) (let ((.def_171 (and .def_170 .def_168))) (let ((.def_172 (and .def_171 .def_166))) (let ((.def_173 (or .def_3 .def_7))) (let ((.def_174 (and A0 .def_71))) (let ((.def_175 (not .def_174))) (let ((.def_176 (or .def_175 .def_173))) (let ((.def_177 (not .def_176))) (let ((.def_178 (or A10 .def_11))) (let ((.def_179 (= .def_153 A5))) (let ((.def_180 (not .def_179))) (let ((.def_181 (and .def_180 .def_178))) (let ((.def_182 (= .def_181 .def_177))) (let ((.def_183 (not .def_182))) (let ((.def_184 (or .def_183 .def_172))) (let ((.def_185 (or .def_18 .def_18))) (let ((.def_186 (not .def_185))) (let ((.def_187 (and A13 A9))) (let ((.def_188 (= .def_187 .def_186))) (let ((.def_189 (not .def_188))) (let ((.def_190 (not A13))) (let ((.def_191 (and .def_190 .def_11))) (let ((.def_192 (not .def_191))) (let ((.def_193 (and A9 A22))) (let ((.def_194 (not .def_193))) (let ((.def_195 (or .def_194 .def_192))) (let ((.def_196 (not .def_195))) (let ((.def_197 (= .def_196 .def_189))) (let ((.def_198 (or A23 A16))) (let ((.def_199 (and .def_145 A24))) (let ((.def_200 (not .def_199))) (let ((.def_201 (and .def_200 .def_198))) (let ((.def_202 (not .def_201))) (let ((.def_203 (or .def_190 A14))) (let ((.def_204 (not .def_203))) (let ((.def_205 (or A9 A12))) (let ((.def_206 (not .def_205))) (let ((.def_207 (or .def_206 .def_204))) (let ((.def_208 (or .def_207 .def_202))) (let ((.def_209 (or .def_208 .def_197))) (let ((.def_210 (not .def_209))) (let ((.def_211 (and .def_210 .def_184))) (let ((.def_212 (and .def_211 .def_160))) (let ((.def_213 (not .def_212))) (let ((.def_214 (or .def_213 .def_112))) (let ((.def_215 (not .def_214))) (let ((.def_216 (or A2 A23))) (let ((.def_217 (not .def_216))) (let ((.def_218 (= .def_33 A7))) (let ((.def_219 (not .def_218))) (let ((.def_220 (or .def_219 .def_217))) (let ((.def_221 (not .def_220))) (let ((.def_222 (and A23 A9))) (let ((.def_223 (not .def_222))) (let ((.def_224 (and .def_190 .def_90))) (let ((.def_225 (and .def_224 .def_223))) (let ((.def_226 (or .def_225 .def_221))) (let ((.def_227 (or .def_3 A2))) (let ((.def_228 (not .def_227))) (let ((.def_229 (or A13 A22))) (let ((.def_230 (not .def_229))) (let ((.def_231 (and .def_230 .def_228))) (let ((.def_232 (or .def_74 A8))) (let ((.def_233 (not .def_232))) (let ((.def_234 (or .def_11 .def_8))) (let ((.def_235 (not .def_234))) (let ((.def_236 (or .def_235 .def_233))) (let ((.def_237 (not .def_236))) (let ((.def_238 (or .def_237 .def_231))) (let ((.def_239 (= .def_238 .def_226))) (let ((.def_240 (or A21 .def_85))) (let ((.def_241 (not .def_240))) (let ((.def_242 (= A1 A11))) (let ((.def_243 (or .def_242 .def_241))) (let ((.def_244 (not .def_243))) (let ((.def_245 (not A7))) (let ((.def_246 (or .def_245 .def_24))) (let ((.def_247 (not .def_246))) (let ((.def_248 (and .def_245 .def_7))) (let ((.def_249 (and .def_248 .def_247))) (let ((.def_250 (or .def_249 .def_244))) (let ((.def_251 (or A14 A14))) (let ((.def_252 (or A21 A24))) (let ((.def_253 (= .def_252 .def_251))) (let ((.def_254 (or A23 .def_0))) (let ((.def_255 (not .def_254))) (let ((.def_256 (or A13 A21))) (let ((.def_257 (not .def_256))) (let ((.def_258 (and .def_257 .def_255))) (let ((.def_259 (or .def_258 .def_253))) (let ((.def_260 (= .def_259 .def_250))) (let ((.def_261 (or .def_260 .def_239))) (let ((.def_262 (not .def_261))) (let ((.def_263 (and .def_11 .def_17))) (let ((.def_264 (not .def_263))) (let ((.def_265 (= A8 A16))) (let ((.def_266 (and .def_265 .def_264))) (let ((.def_267 (or .def_8 .def_3))) (let ((.def_268 (not .def_267))) (let ((.def_269 (or .def_190 .def_153))) (let ((.def_270 (and .def_269 .def_268))) (let ((.def_271 (not .def_270))) (let ((.def_272 (and .def_271 .def_266))) (let ((.def_273 (and .def_74 .def_30))) (let ((.def_274 (= A6 A14))) (let ((.def_275 (= .def_274 .def_273))) (let ((.def_276 (not .def_275))) (let ((.def_277 (and A12 A13))) (let ((.def_278 (not .def_277))) (let ((.def_279 (or .def_33 .def_3))) (let ((.def_280 (and .def_279 .def_278))) (let ((.def_281 (and .def_280 .def_276))) (let ((.def_282 (not .def_281))) (let ((.def_283 (or .def_282 .def_272))) (let ((.def_284 (and A16 A5))) (let ((.def_285 (not .def_284))) (let ((.def_286 (and A0 .def_33))) (let ((.def_287 (not .def_286))) (let ((.def_288 (or .def_287 .def_285))) (let ((.def_289 (not .def_288))) (let ((.def_290 (or A12 .def_145))) (let ((.def_291 (not .def_290))) (let ((.def_292 (and .def_33 .def_12))) (let ((.def_293 (not .def_292))) (let ((.def_294 (and .def_293 .def_291))) (let ((.def_295 (or .def_294 .def_289))) (let ((.def_296 (or A19 A9))) (let ((.def_297 (not .def_296))) (let ((.def_298 (and A6 A14))) (let ((.def_299 (and .def_298 .def_297))) (let ((.def_300 (not .def_299))) (let ((.def_301 (and .def_32 A24))) (let ((.def_302 (or .def_59 A20))) (let ((.def_303 (= .def_302 .def_301))) (let ((.def_304 (or .def_303 .def_300))) (let ((.def_305 (not .def_304))) (let ((.def_306 (and .def_305 .def_295))) (let ((.def_307 (or .def_306 .def_283))) (let ((.def_308 (not .def_307))) (let ((.def_309 (or .def_308 .def_262))) (let ((.def_310 (and .def_32 A4))) (let ((.def_311 (not .def_310))) (let ((.def_312 (= A12 A2))) (let ((.def_313 (or .def_312 .def_311))) (let ((.def_314 (not .def_313))) (let ((.def_315 (or .def_8 A0))) (let ((.def_316 (= .def_8 A17))) (let ((.def_317 (= .def_316 .def_315))) (let ((.def_318 (and .def_317 .def_314))) (let ((.def_319 (not .def_318))) (let ((.def_320 (and A17 A2))) (let ((.def_321 (or .def_245 A8))) (let ((.def_322 (or .def_321 .def_320))) (let ((.def_323 (and A8 A12))) (let ((.def_324 (not .def_323))) (let ((.def_325 (or A3 A21))) (let ((.def_326 (not .def_325))) (let ((.def_327 (and .def_326 .def_324))) (let ((.def_328 (or .def_327 .def_322))) (let ((.def_329 (and .def_328 .def_319))) (let ((.def_330 (not .def_329))) (let ((.def_331 (and A17 A16))) (let ((.def_332 (not .def_331))) (let ((.def_333 (and A3 .def_38))) (let ((.def_334 (or .def_333 .def_332))) (let ((.def_335 (not .def_334))) (let ((.def_336 (or .def_12 A11))) (let ((.def_337 (not .def_336))) (let ((.def_338 (= A0 A17))) (let ((.def_339 (not .def_338))) (let ((.def_340 (= .def_339 .def_337))) (let ((.def_341 (not .def_340))) (let ((.def_342 (= .def_341 .def_335))) (let ((.def_343 (or .def_8 .def_12))) (let ((.def_344 (not .def_343))) (let ((.def_345 (or A16 A2))) (let ((.def_346 (and .def_345 .def_344))) (let ((.def_347 (not A15))) (let ((.def_348 (or .def_347 A6))) (let ((.def_349 (or .def_18 A6))) (let ((.def_350 (or .def_349 .def_348))) (let ((.def_351 (not .def_350))) (let ((.def_352 (and .def_351 .def_346))) (let ((.def_353 (not .def_352))) (let ((.def_354 (or .def_353 .def_342))) (let ((.def_355 (not .def_354))) (let ((.def_356 (or .def_355 .def_330))) (let ((.def_357 (or A15 A20))) (let ((.def_358 (= .def_90 .def_90))) (let ((.def_359 (and .def_358 .def_357))) (let ((.def_360 (and .def_3 A8))) (let ((.def_361 (and A17 A8))) (let ((.def_362 (not .def_361))) (let ((.def_363 (= .def_362 .def_360))) (let ((.def_364 (not .def_363))) (let ((.def_365 (and .def_364 .def_359))) (let ((.def_366 (or A0 .def_153))) (let ((.def_367 (not .def_366))) (let ((.def_368 (or .def_24 A6))) (let ((.def_369 (and .def_368 .def_367))) (let ((.def_370 (or .def_49 .def_8))) (let ((.def_371 (and A2 .def_245))) (let ((.def_372 (or .def_371 .def_370))) (let ((.def_373 (not .def_372))) (let ((.def_374 (= .def_373 .def_369))) (let ((.def_375 (not .def_374))) (let ((.def_376 (and .def_375 .def_365))) (let ((.def_377 (or A7 A21))) (let ((.def_378 (or A7 .def_85))) (let ((.def_379 (or .def_378 .def_377))) (let ((.def_380 (and .def_12 .def_38))) (let ((.def_381 (not .def_380))) (let ((.def_382 (or .def_0 A15))) (let ((.def_383 (= .def_382 .def_381))) (let ((.def_384 (or .def_383 .def_379))) (let ((.def_385 (not .def_384))) (let ((.def_386 (and .def_71 A11))) (let ((.def_387 (or A13 A1))) (let ((.def_388 (or .def_387 .def_386))) (let ((.def_389 (not .def_388))) (let ((.def_390 (= .def_145 A18))) (let ((.def_391 (or A1 .def_30))) (let ((.def_392 (not .def_391))) (let ((.def_393 (or .def_392 .def_390))) (let ((.def_394 (= .def_393 .def_389))) (let ((.def_395 (not .def_394))) (let ((.def_396 (and .def_395 .def_385))) (let ((.def_397 (and .def_396 .def_376))) (let ((.def_398 (or .def_397 .def_356))) (let ((.def_399 (not .def_398))) (let ((.def_400 (and .def_399 .def_309))) (let ((.def_401 (not .def_400))) (let ((.def_402 (or .def_401 .def_215))) .def_402))))))))))))))))))))))))))))))))))))))))))))))))))))))))))))))))))))))))))))))))))))))))))))))))))))))))))))))))))))))))))))))))))))))))))))))))))))))))))))))))))))))))))))))))))))))))))))))))))))))))))))))))))))))))))))))))))))))))))))))))))))))))))))))))))))))))))))))))))))))))))))))))))))))))))))))))))))))))))))))))))))))))))))))))))))))))))))))))))))))))))))))))))))))))))))))))))))))))))))))))))))
(check-sat)
